
Gurobi 13.0.1 (win64) logging started Fri Apr 10 01:54:39 2026

Set parameter LogFile to value "C:\Users\jiho\code\cloud_vmp_optimization\experiments\2604-chance-2sp-toy\results\runs\chance_2sp_toy_24vm_ratio_batch_heavy_od5_sp5_bj14_sc10_cap8_avg20_lam010\solver.log"
Set parameter Threads to value 8
Gurobi Optimizer version 13.0.1 build v13.0.1rc0 (win64 - Windows 11+.0 (26200.2))

CPU model: 13th Gen Intel(R) Core(TM) i9-13900K, instruction set [SSE2|AVX|AVX2]
Thread count: 24 physical cores, 32 logical processors, using up to 8 threads

Non-default parameters:
TimeLimit  7200
MIPGap  0.001
Threads  8

Optimize a model with 71793 rows, 59709 columns and 712516 nonzeros (Min)
Model fingerprint: 0x185a2d75
Model has 121 linear objective coefficients
Variable types: 1440 continuous, 58269 integer (58269 binary)
Coefficient statistics:
  Matrix range     [2e-02, 3e+01]
  Objective range  [2e-02, 1e+00]
  Bounds range     [1e+00, 1e+00]
  RHS range        [1e-01, 2e+01]

Presolve removed 3743 rows and 3154 columns (presolve time = 5s)...
Presolve removed 3743 rows and 3154 columns
Presolve time: 5.30s
Presolved: 68050 rows, 56555 columns, 704592 nonzeros
Variable types: 0 continuous, 56555 integer (56555 binary)
Found heuristic solution: objective 6.0000000
Deterministic concurrent LP optimizer: primal simplex, dual simplex, and barrier
Showing barrier log only...

Root barrier log...

Ordering time: 1.68s

Barrier statistics:
 Dense cols : 30
 AA' NZ     : 1.284e+06
 Factor NZ  : 3.753e+06 (roughly 80 MB of memory)
 Factor Ops : 2.813e+09 (less than 1 second per iteration)
 Threads    : 6

                  Objective                Residual
Iter       Primal          Dual         Primal    Dual     Compl     Time
   0   5.14595342e+01 -1.58586372e+01  9.01e+02 1.77e-04  2.96e-01     8s
   1   4.91055233e+01 -4.48745452e+02  3.82e+02 2.01e-02  7.53e-02     8s
   2   7.73354688e+00 -3.89402800e+02  1.60e+00 4.64e-03  2.50e-03     8s
   3   7.29589815e+00 -3.68317192e+01  2.51e-11 3.27e-04  2.44e-04     8s
   4   3.23050442e+00 -1.50299929e+00  3.87e-12 1.28e-08  2.62e-05     9s
   5   1.17693623e+00 -3.84692977e-01  9.05e-13 3.10e-09  8.64e-06     9s
   6   1.01883650e+00  1.99464019e-01  5.16e-13 1.57e-09  4.53e-06     9s
   7   1.02171343e+00  8.43894360e-01  2.87e-13 2.68e-09  9.84e-07     9s
   8   1.00040871e+00  9.97976325e-01  1.42e-14 1.23e-10  1.35e-08     9s
   9   1.00000000e+00  9.99999994e-01  2.49e-14 6.20e-10  4.97e-14    10s

Barrier solved model in 9 iterations and 9.51 seconds (8.43 work units)
Optimal objective 1.00000000e+00


Root crossover log...

    1539 DPushes remaining with DInf 0.0000000e+00                10s
       0 DPushes remaining with DInf 0.0000000e+00                10s

   54610 PPushes remaining with PInf 0.0000000e+00                10s
   44023 PPushes remaining with PInf 0.0000000e+00                10s
   10010 PPushes remaining with PInf 0.0000000e+00                15s
       0 PPushes remaining with PInf 0.0000000e+00                17s

  Push phase complete: Pinf 0.0000000e+00, Dinf 0.0000000e+00     17s


Root simplex log...

Iteration    Objective       Primal Inf.    Dual Inf.      Time
   54969    1.0000000e+00   0.000000e+00   0.000000e+00     17s
Crossover time: 7.27 seconds (8.15 work units)
Concurrent spin time: 3.23s (can be avoided by choosing Method=3)

Solved with barrier

Root relaxation: objective 1.000000e+00, 54969 iterations, 14.36 seconds (12.09 work units)

    Nodes    |    Current Node    |     Objective Bounds      |     Work
 Expl Unexpl |  Obj  Depth IntInf | Incumbent    BestBd   Gap | It/Node Time

     0     0    1.00000    0 9810    6.00000    1.00000  83.3%     -   99s
     0     0          -    0         6.00000    1.00000  83.3%     - 7200s

Explored 1 nodes (1432407 simplex iterations) in 7200.16 seconds (4814.43 work units)
Thread count was 8 (of 32 available processors)

Solution count 1: 6 

Time limit reached
Best objective 6.000000000000e+00, best bound 1.000000000000e+00, gap 83.3333%
